n_res = 2;
rc = [ 5, 8 ];
n_tasks = 7;
d = [ 2, 4, 2, 6, 2, 5, 10 ];
rr = [| 2, 2, 3, 2, 3, 1, 5
      | 3, 3, 1, 2, 2, 3, 1 |];
suc = [ { 3, 4, 5 },
       {  },
       { 4, 7 },
       {  },
       {  },
       {  },
       {  } ];
